SDVRP instances/custom_instances/p02_12_split0.vrp
NAME:p02_12_split
BEST_KNOWN: 0
COMMENT: 0
DIMENSION: 385
CAPACITY: 140
EDGE_WEIGHT_FORMAT: FUNCTION
EDGE_WEIGHT_TYPE: EXACT_2D
NODE_COORD_SECTION
1 0.00000 0.00000
2 23 15
3 23 15
4 50 12
5 50 12
6 50 12
7 50 12
8 50 12
9 -16 -36
10 -16 -36
11 -16 -36
12 -16 -36
13 -16 -36
14 -16 -36
15 -16 -36
16 48 -5
17 48 -5
18 48 -5
19 48 -5
20 -20 31
21 -20 31
22 -20 31
23 -20 31
24 -20 31
25 -43 -13
26 -43 -13
27 -43 -13
28 -43 -13
29 -43 -13
30 -14 18
31 -14 18
32 -14 18
33 -14 18
34 -14 18
35 -14 18
36 -50 36
37 -50 36
38 -50 36
39 -50 36
40 -50 36
41 -8 5
42 -8 5
43 -8 5
44 -8 5
45 43 -26
46 43 -26
47 43 -26
48 43 -26
49 43 -26
50 6 -49
51 6 -49
52 6 -49
53 6 -49
54 44 21
55 44 21
56 44 21
57 44 21
58 44 21
59 44 21
60 44 21
61 12 36
62 12 36
63 12 36
64 12 36
65 -40 8
66 -40 8
67 -40 8
68 -40 8
69 -40 8
70 -40 18
71 -40 18
72 -40 18
73 -40 18
74 -44 1
75 -44 1
76 0 -36
77 0 -36
78 0 -36
79 0 -36
80 0 -36
81 0 -36
82 0 -36
83 20 -48
84 20 -48
85 20 -48
86 20 -48
87 20 -48
88 -42 -41
89 -42 -41
90 -42 -41
91 -42 -41
92 18 -18
93 18 -18
94 18 -18
95 18 -18
96 18 -18
97 18 -18
98 50 -23
99 50 -23
100 50 -23
101 50 -23
102 50 -23
103 50 -23
104 50 -23
105 50 -23
106 10 -32
107 10 -32
108 10 -32
109 10 -32
110 10 -32
111 -48 -47
112 -48 -47
113 -48 -47
114 -48 -47
115 -48 -47
116 -48 -47
117 9 -38
118 9 -38
119 9 -38
120 9 -38
121 -17 -16
122 -17 -16
123 -17 -16
124 -17 -16
125 -17 -16
126 -17 -16
127 -17 -16
128 -10 44
129 -10 44
130 -10 44
131 -10 44
132 -10 44
133 -10 44
134 -10 44
135 -10 44
136 -50 27
137 -50 27
138 -50 27
139 -50 27
140 -50 27
141 -50 27
142 -50 27
143 -50 27
144 -50 27
145 -9 -26
146 -9 -26
147 -9 -26
148 0 0
149 0 0
150 0 0
151 0 0
152 0 0
153 0 0
154 -48 5
155 -48 5
156 -48 5
157 -48 5
158 -48 5
159 -48 5
160 -48 5
161 -48 5
162 -37 22
163 -37 22
164 -37 22
165 -37 22
166 -37 22
167 -37 22
168 -37 22
169 48 -37
170 48 -37
171 48 -37
172 48 -37
173 48 -37
174 48 -37
175 48 -37
176 48 -37
177 -12 -21
178 -12 -21
179 -12 -21
180 -12 -21
181 -12 -21
182 -12 -21
183 -12 -21
184 -12 -21
185 -12 -21
186 46 23
187 46 23
188 -37 -16
189 -37 -16
190 -20 -21
191 -20 -21
192 -20 -21
193 -20 -21
194 48 -37
195 48 -37
196 48 -37
197 48 -37
198 48 -37
199 48 -37
200 48 -37
201 48 -37
202 48 -37
203 -18 -5
204 -18 -5
205 -18 -5
206 -18 -5
207 -18 -5
208 -18 -5
209 -18 -5
210 -18 -5
211 19 -15
212 19 -15
213 19 -15
214 19 -15
215 19 -15
216 19 -15
217 19 -15
218 19 -15
219 37 9
220 37 9
221 37 9
222 37 9
223 37 9
224 5 34
225 5 34
226 5 34
227 5 34
228 5 34
229 5 34
230 5 34
231 -5 31
232 -5 31
233 -5 31
234 -5 31
235 -5 31
236 -36 -47
237 -36 -47
238 37 -43
239 37 -43
240 37 -43
241 37 -43
242 37 -43
243 37 -43
244 37 -43
245 43 4
246 43 4
247 43 4
248 43 4
249 43 4
250 43 4
251 -35 -40
252 50 34
253 50 34
254 50 34
255 50 34
256 50 34
257 50 34
258 50 34
259 50 34
260 -14 -20
261 -14 -20
262 -14 -20
263 15 24
264 15 24
265 15 24
266 15 24
267 15 24
268 15 24
269 15 24
270 -27 -35
271 -6 43
272 -6 43
273 -6 43
274 -6 43
275 -6 43
276 49 -21
277 49 -21
278 49 -21
279 49 -21
280 -31 -36
281 -31 -36
282 -31 -36
283 22 -24
284 22 -24
285 22 -24
286 22 -24
287 -12 13
288 -12 13
289 -12 13
290 -12 13
291 -12 13
292 -12 13
293 -12 13
294 1 41
295 1 41
296 1 41
297 1 41
298 1 41
299 1 41
300 -3 36
301 -3 36
302 -3 36
303 -3 36
304 -3 36
305 -5 -13
306 -5 -13
307 -5 -13
308 -5 -13
309 -5 -13
310 17 44
311 17 44
312 17 44
313 17 44
314 17 44
315 17 44
316 17 44
317 19 39
318 19 39
319 19 39
320 19 39
321 -32 13
322 -32 13
323 -15 -6
324 -15 -6
325 -15 -6
326 -16 31
327 -16 31
328 -16 31
329 -16 31
330 -16 31
331 -16 31
332 -16 31
333 27 -43
334 27 -43
335 27 -43
336 -14 22
337 -14 22
338 -14 22
339 -14 22
340 28 -40
341 28 -40
342 28 -40
343 29 39
344 29 39
345 29 39
346 29 39
347 29 39
348 24 38
349 24 38
350 24 38
351 24 38
352 24 38
353 24 38
354 24 38
355 -1 -20
356 -1 -20
357 -1 -20
358 -19 -24
359 -19 -24
360 -19 -24
361 -19 -24
362 -19 -24
363 -19 -24
364 0 -28
365 0 -28
366 0 -28
367 0 -28
368 0 -28
369 0 -28
370 0 -28
371 0 -28
372 -16 -47
373 -16 -47
374 -16 -47
375 -16 -47
376 19 0
377 19 0
378 19 0
379 19 0
380 19 0
381 14 -15
382 14 -15
383 14 -15
384 13 -14
385 13 -14
DEMAND_SECTION
1 0
2 28
3 14
4 28
5 28
6 1
7 1
8 1
9 28
10 14
11 1
12 1
13 1
14 1
15 1
16 28
17 7
18 1
19 1
20 14
21 1
22 1
23 1
24 1
25 28
26 28
27 7
28 1
29 1
30 28
31 28
32 7
33 1
34 1
35 1
36 28
37 14
38 7
39 1
40 1
41 28
42 14
43 1
44 1
45 28
46 14
47 7
48 1
49 1
50 14
51 7
52 1
53 1
54 28
55 7
56 1
57 1
58 1
59 1
60 1
61 28
62 1
63 1
64 1
65 28
66 28
67 1
68 1
69 1
70 28
71 28
72 1
73 1
74 28
75 14
76 14
77 1
78 1
79 1
80 1
81 1
82 1
83 28
84 14
85 7
86 1
87 1
88 28
89 7
90 1
91 1
92 28
93 14
94 7
95 1
96 1
97 1
98 28
99 14
100 1
101 1
102 1
103 1
104 1
105 1
106 14
107 7
108 1
109 1
110 1
111 14
112 7
113 1
114 1
115 1
116 1
117 28
118 7
119 1
120 1
121 28
122 28
123 7
124 1
125 1
126 1
127 1
128 28
129 7
130 1
131 1
132 1
133 1
134 1
135 1
136 28
137 14
138 7
139 1
140 1
141 1
142 1
143 1
144 1
145 28
146 28
147 7
148 28
149 14
150 1
151 1
152 1
153 1
154 14
155 7
156 1
157 1
158 1
159 1
160 1
161 1
162 28
163 28
164 7
165 1
166 1
167 1
168 1
169 14
170 7
171 1
172 1
173 1
174 1
175 1
176 1
177 28
178 14
179 7
180 1
181 1
182 1
183 1
184 1
185 1
186 28
187 28
188 28
189 14
190 28
191 1
192 1
193 1
194 28
195 28
196 7
197 1
198 1
199 1
200 1
201 1
202 1
203 28
204 7
205 1
206 1
207 1
208 1
209 1
210 1
211 28
212 28
213 1
214 1
215 1
216 1
217 1
218 1
219 14
220 7
221 1
222 1
223 1
224 28
225 7
226 1
227 1
228 1
229 1
230 1
231 28
232 14
233 1
234 1
235 1
236 28
237 14
238 28
239 7
240 1
241 1
242 1
243 1
244 1
245 28
246 28
247 7
248 1
249 1
250 1
251 28
252 28
253 14
254 7
255 1
256 1
257 1
258 1
259 1
260 28
261 14
262 1
263 28
264 1
265 1
266 1
267 1
268 1
269 1
270 28
271 28
272 14
273 7
274 1
275 1
276 28
277 14
278 7
279 1
280 28
281 1
282 1
283 28
284 7
285 1
286 1
287 14
288 7
289 1
290 1
291 1
292 1
293 1
294 28
295 28
296 1
297 1
298 1
299 1
300 28
301 7
302 1
303 1
304 1
305 28
306 1
307 1
308 1
309 1
310 28
311 14
312 1
313 1
314 1
315 1
316 1
317 28
318 14
319 1
320 1
321 28
322 28
323 28
324 14
325 1
326 28
327 28
328 7
329 1
330 1
331 1
332 1
333 28
334 7
335 1
336 28
337 7
338 1
339 1
340 28
341 1
342 1
343 14
344 1
345 1
346 1
347 1
348 14
349 7
350 1
351 1
352 1
353 1
354 1
355 28
356 14
357 1
358 14
359 7
360 1
361 1
362 1
363 1
364 28
365 28
366 1
367 1
368 1
369 1
370 1
371 1
372 28
373 14
374 7
375 1
376 28
377 1
378 1
379 1
380 1
381 28
382 7
383 1
384 28
385 7
DEPOT_SECTION
1
-1
EOF