SDVRP instances/custom_instances/p02_12_split0.sol
384 -2 1 218 219 220 222 221 244 249 248 246 247 245 -18 17 15 16 276 275 277 278 102 104 101 99 97 100 98 103 -34 32 31 30 29 33 321 320 -40 43 41 42 -48 45 46 47 44 282 283 284 285 95 93 91 92 -52 51 49 50 85 83 86 84 82 333 334 332 339 340 341 -56 53 58 55 59 57 54 3 4 6 5 7 375 379 377 376 378 -61 60 63 62 226 227 225 228 223 229 224 295 297 298 296 294 293 303 300 301 -64 66 68 67 65 158 159 153 160 157 155 154 156 73 74 209 207 206 205 203 -70 71 69 72 166 162 164 165 161 163 167 288 287 289 292 -94 96 243 241 237 242 238 239 240 168 174 175 170 197 196 198 173 199 172 200 171 201 195 193 194 169 -106 107 108 109 105 119 117 118 116 75 79 80 77 76 78 81 363 364 367 368 365 -124 125 123 126 88 89 90 87 115 111 112 110 114 113 236 235 250 281 280 -139 136 143 138 137 140 141 142 135 39 38 37 35 36 20 23 19 22 21 286 290 291 -147 149 152 151 148 150 -176 180 181 183 146 145 144 370 369 366 354 356 355 -184 177 179 178 182 358 361 357 362 359 360 269 279 189 190 192 191 -186 185 258 252 257 251 255 254 253 256 262 265 268 -187 188 28 26 25 27 24 202 208 204 -216 215 213 211 210 214 212 217 380 382 381 384 383 -230 330 328 325 327 326 331 329 336 335 337 338 -231 234 233 232 129 132 127 130 134 128 131 133 270 274 271 272 273 302 299 -261 259 260 14 13 11 10 12 8 9 372 371 373 374 -263 266 267 264 352 351 350 353 348 347 349 346 343 345 344 342 309 314 310 313 311 312 315 317 316 318 319 -308 305 306 307 304 120 121 122 322 324 323 0 





OBJ=
2297.635
BEST_KNOWN=
0.000